
  24    0


   0  13 2 3 4 5 6 9 17 18 19 20 21 22 23 
   3   5 16 15 13 12 10 
   3   4 14 11 10 7 
   2   3 10 8 7 
   9   3 13 11 10 
   9   2 13 11 
   2   1 12 
   3   1 11 
   7   1 10 
   7   1 24
   4   1 24
   7   1 24
   2   1 24
   4   1 24
   1   1 24
   2   1 24
   3   1 24
   7   1 24
   6   1 24
   6   1 24
   9   1 24
   9   1 24
   1   1 24
   0   0 
